num_posiciones_existentes=2;

ciudades=[|3, 3
|6, 6|];

tamano_matriz=8;
matriz_segmento_poblacion=[|14, 3, 7, 10, 9, 2, 12, 6
                            |8, 14, 6, 11, 5, 13, 7, 9
                            |7, 12, 9, 4, 15, 8, 3, 10
                            |10, 8, 13, 15, 6, 5, 12, 2
                            |11, 6, 4, 9, 2, 10, 14, 7
                            |15, 5, 8, 3, 7, 12, 10, 4
                            |3, 9, 10, 14, 13, 6, 8, 11
                            |12, 7, 15, 6, 4, 9, 11, 14|];


matriz_entorno_empresarial=[|9, 5, 12, 14, 3, 7, 10, 6
                            |8, 6, 14, 12, 11, 5, 13, 9
                            |7, 10, 4, 13, 15, 9, 3, 11
                            |12, 3, 8, 15, 7, 14, 6, 5
                            |11, 14, 10, 6, 4, 9, 12, 8
                            |15, 8, 9, 10, 13, 3, 14, 7
                            |6, 13, 7, 8, 12, 11, 15, 5
                            |14, 9, 3, 11, 6, 4, 8, 10|];
                        


num_programas=3;
